[ma. 03. april 18:06:34 +0200 2023]  ./input/alternate_g_np/50-4-4.gcc
Set parameter Username
Academic license - for non-commercial use only - expires 2024-03-28
Set parameter TimeLimit to value 1800
Set parameter PreCrush to value 1
Set parameter LazyConstraints to value 1
Gurobi Optimizer version 10.0.1 build v10.0.1rc0 (linux64)

CPU model: AMD Ryzen 9 5950X 16-Core Processor, instruction set [SSE2|AVX|AVX2]
Thread count: 16 physical cores, 32 logical processors, using up to 32 threads

Optimize a model with 54 rows, 250 columns and 650 nonzeros
Model fingerprint: 0x5127edf0
Variable types: 0 continuous, 250 integer (250 binary)
Coefficient statistics:
  Matrix range     [1e+00, 1e+00]
  Objective range  [3e+00, 1e+02]
  Bounds range     [1e+00, 1e+00]
  RHS range        [1e+00, 1e+00]
Presolve time: 0.00s
Presolved: 54 rows, 250 columns, 650 nonzeros
Variable types: 0 continuous, 250 integer (250 binary)

Root relaxation: objective 2.377000e+03, 4 iterations, 0.00 seconds (0.00 work units)

    Nodes    |    Current Node    |     Objective Bounds      |     Work
 Expl Unexpl |  Obj  Depth IntInf | Incumbent    BestBd   Gap | It/Node Time

     0     0 2377.00000    0    4          - 2377.00000      -     -    0s
     0     0 2377.00000    0    6          - 2377.00000      -     -    0s
     0     0 2377.00000    0    -          - 2377.00000      -     -    0s
     0     0 2377.00000    0    8          - 2377.00000      -     -    0s
     0     0 2377.00000    0    -          - 2377.00000      -     -    0s
     0     0 2377.00000    0    -          - 2377.00000      -     -    0s
     0     0 2377.00000    0   12          - 2377.00000      -     -    0s
     0     0 2377.00000    0    -          - 2377.00000      -     -    0s
     0     0 2377.00000    0    -          - 2377.00000      -     -    0s
     0     0 2377.00000    0    -          - 2377.00000      -     -    0s
     0     0 2377.00000    0    8          - 2377.00000      -     -    0s
     0     0 2377.00000    0    -          - 2377.00000      -     -    0s
     0     0 2377.00000    0    6          - 2377.00000      -     -    0s
     0     2 2377.00000    0    4          - 2377.00000      -     -    0s
*18355  9470              40    1839.0000000 2377.00000  29.3%  24.3    3s
*18942  9349              22    2119.0000000 2377.00000  12.2%  24.8    3s
H19479  9184                    2180.0000000 2377.00000  9.04%  25.6    3s
H19711  8679                    2221.0000000 2377.00000  7.02%  25.9    3s
 24463 10434 2354.00000   28   69 2221.00000 2377.00000  7.02%  30.5    5s
*29105  8339              36    2273.0000000 2366.50000  4.11%  33.0    6s
 48488  8070 2304.50000   39   59 2273.00000 2320.00000  2.07%  40.2   10s
 77154  3522     cutoff   39      2273.00000 2295.00000  0.97%  42.1   15s

Cutting planes:
  User: 20
  Lazy constraints: 2052

Explored 87615 nodes (3556016 simplex iterations) in 16.21 seconds (11.03 work units)
Thread count was 32 (of 32 available processors)

Solution count 5: 2273 2221 2180 ... 1839

Optimal solution found (tolerance 1.00e-04)
Best objective 2.273000000000e+03, best bound 2.273000000000e+03, gap 0.0000%

User-callback calls 177503, time in user-callback 5.93 sec
Minimal separator inequalities added: 197542
Indegree inequalities added: 0
Passed solution check
[ma. 03. april 18:06:50 +0200 2023]  done

